c ---- [ banner ] ------------------------------------------------------------
c
c Kissat SAT Solver
c 
c Copyright (c) 2021-2024 Armin Biere University of Freiburg
c Copyright (c) 2019-2021 Armin Biere Johannes Kepler University Linz
c 
c Version 4.0.1 88e10f59b00fe67ce1111ede5ed1da1e8fcee480
c gcc (Ubuntu 11.4.0-1ubuntu1~22.04) 11.4.0 -W -Wall -ggdb3 -DEMBEDDED -DLOGGING -DMETRICS
c Thu Nov 14 19:28:28 CST 2024 Linux PalGoose 5.15.167.4-microsoft-standard-WSL2 x86_64
c
c ---- [ parsing ] -----------------------------------------------------------
c
c opened and reading DIMACS file:
c
c   test.cnf
c
c parsed 'p cnf 42387 183641' header
c closing input after reading 3451225 bytes (3 MB)
c finished parsing after 0.17 seconds
c
c ---- [ solving ] -----------------------------------------------------------
c
c  seconds switched rate     size/glue tier1  binary           remaining
c         MB reductions conflicts size  tier2     irredundant
c          level restarts redundant glue  trail           variables
c
c *  0.17 34 0 0 0  0 0   0   0 0.0 0 0 0 0 0% 78594 105047 42387 100%
c (  0.18 35 0 0 0  0 0   0   0 0.0 0 0 0 0 0% 78594 105047 42387 100%
c .  0.19 35 0 0 0  0 0   0   0 0.0 0 0 0 0 0% 78594 105047 42387 100%
c c  0.98 53 0 0 0  0 0   0   0 0.0 0 0 0 0 0% 78431 104827 40936 97%
c d  1.03 53 0 0 0  0 0   0   0 0.0 0 0 0 0 0% 75150 104826 40774 96%
c b  1.07 53 0 0 0  0 0   0   0 0.0 0 0 0 0 0% 75150 104826 40240 95%
c =  1.22 53 0 0 0  0 0   0   0 0.0 0 0 0 0 0% 75012 104625 40153 95%
c d  1.24 53 0 0 0  0 0   0   0 0.0 0 0 0 0 0% 75027 104466 40153 95%
c d  1.31 53 0 0 0  0 0   0   0 0.0 0 0 0 0 0% 74865 104466 40072 95%
c f  2.39 52 0 0 0  0 0   0   0 0.0 0 0 0 0 0% 53138 104463 41627 98%
c e  3.85 55 0 0 0  0 0   0   0 0.0 0 0 0 0 0% 15143 129572 25966 61%
c )  3.85 55 0 0 0  0 0   0   0 0.0 0 0 0 0 0% 15143 129572 25966 61%
c {  3.86 56 0 0 0  0 0   0   0 0.0 0 0 2 6 0% 15143 129572 25966 61%
c i  3.96 56 46 0 0 37 12 193 154 2.5 13 5 3 9 21% 15157 129570 25965 61%
c i  3.97 56 39 0 0 37 10 284 238 2.3 11 5 3 9 16% 15159 129570 25964 61%
c i  3.98 56 39 0 0 37 10 285 238 2.3 11 5 3 9 16% 15159 129570 25963 61%
c i  4.04 56 38 0 0 67 13 342 285 2.3 12 5 3 9 15% 15165 129569 25962 61%
c i  4.06 56 47 0 0 71 11 479 396 2.4 12 5 2 9 13% 15170 129568 25961 61%
c i  4.06 56 47 0 0 71 12 491 403 2.3 11 5 2 9 13% 15172 129568 25960 61%
c i  4.06 56 47 0 0 71 12 492 403 2.3 11 5 2 9 13% 15172 129568 25931 61%
c
c  seconds  switched  rate     size/glue tier1    binary           remaining
c         MB reductions conflicts    size  tier2      irredundant
c          level restarts  redundant   glue   trail           variables
c
c i  4.08 56 62 0 0 74 14 549 434 2.3 11 5 2 9 13% 15183 129567 25930 61%
c i  4.25 56 62 0 0 96 15 666 531 2.7 14 5 2 9 15% 15195 129567 25929 61%
c -  4.44 55 58 0 1 127 12 1001 718 2.5 13 5 2 7 14% 15136 129288 25929 61%
c }  4.44 55 58 1 1 127 12 1001 718 2.5 13 5 2 7 14% 15136 129288 25929 61%
c [  4.44 55 0 1 1 127 0 1001 718 0.0 0 0 2 6 0% 15136 129288 25929 61%
c B  4.44 55 0 1 1 127 0 1001 718 0.0 0 0 2 6 0% 15136 129288 25929 61%
c -  4.84 55 290 1 2 127 2 2001 1605 3.9 45 12 7 15 17% 15144 129288 25929 61%
c W  4.89 55 290 1 2 127 2 2003 1607 3.9 45 12 7 15 17% 15138 129288 25929 61%
c ]  5.11 55 273 2 2 128 2 2112 1708 3.8 44 12 7 15 18% 15140 129288 25929 61%
c {  5.11 55 58 2 2 128 12 2112 1708 2.5 13 5 2 7 14% 15140 129288 25929 61%
c i  5.13 55 57 2 2 132 12 2125 1714 2.5 13 5 2 7 14% 15145 129288 25928 61%
c i  5.20 55 56 2 2 137 12 2155 1725 2.5 12 5 2 7 14% 15152 129288 25927 61%
c c  7.08 55 44 2 2 137 9 2512 2047 8.7 42 5 2 7 29% 15581 129106 25865 61%
c d  7.12 55 44 2 2 137 9 2512 2043 8.7 42 5 2 7 29% 15481 129052 25862 61%
c b  7.14 55 44 2 2 137 9 2512 2043 8.7 42 5 2 7 29% 15481 129052 25819 61%
c u  7.21 55 44 2 2 137 9 2512 2013 8.7 42 5 2 7 29% 15459 129052 25791 61%
c v  7.31 55 44 2 2 137 9 2512 2013 8.7 42 5 2 7 29% 15459 129052 25791 61%
c w  7.36 55 44 2 2 137 9 2512 2013 8.7 42 5 2 7 29% 15459 129052 25791 61%
c x  7.41 55 44 2 2 137 9 2512 2013 8.7 42 5 2 7 29% 15606 128677 25791 61%
c =  7.55 55 44 2 2 137 9 2512 2013 8.7 42 5 2 7 29% 15619 128653 25777 61%
c
c  seconds  switched  rate       size/glue tier1    binary           remaining
c         MB reductions conflicts      size  tier2      irredundant
c          level restarts   redundant    glue   trail           variables
c
c d  7.58 55 44 2 2 137 9 2512 2010 8.7 42 5 2 7 29% 15458 128565 25705 61%
c t  7.61 55 44 2 2 137 9 2512 2010 8.7 42 5 2 7 29% 15400 128565 25705 61%
c b  7.62 55 44 2 2 137 9 2512 2010 8.7 42 5 2 7 29% 15400 128565 25704 61%
c f  7.67 55 44 2 2 137 9 2512 2010 8.7 42 5 2 7 29% 15412 127095 25705 61%
c c  8.04 55 44 2 2 137 9 2512 2009 8.7 42 5 2 7 29% 15251 127081 25703 61%
c d  8.07 55 44 2 2 137 9 2512 2009 8.7 42 5 2 7 29% 15249 127079 25703 61%
c u  8.15 55 44 2 2 137 9 2512 1902 8.7 42 5 2 7 29% 15262 127079 25703 61%
c v  8.22 55 44 2 2 137 9 2512 1899 8.7 42 5 2 7 29% 15262 127079 25703 61%
c w  8.26 55 44 2 2 137 9 2512 1899 8.7 42 5 2 7 29% 15262 127079 25703 61%
c x  8.31 55 44 2 2 137 9 2512 1898 8.7 42 5 2 7 29% 15285 126967 25703 61%
c =  8.46 55 44 2 2 137 9 2512 1898 8.7 42 5 2 7 29% 15303 126929 25689 61%
c d  8.48 55 44 2 2 137 9 2512 1897 8.7 42 5 2 7 29% 15332 126813 25678 61%
c t  8.50 55 44 2 2 137 9 2512 1897 8.7 42 5 2 7 29% 15313 126813 25672 61%
c b  8.51 55 44 2 2 137 9 2512 1897 8.7 42 5 2 7 29% 15313 126813 25659 61%
c f  8.56 55 44 2 2 137 9 2512 1897 8.7 42 5 2 7 29% 15311 126126 25664 61%
c i  8.57 55 44 2 2 137 9 2512 1897 8.7 42 5 2 7 29% 15311 126126 25664 61%
c i  8.67 55 42 2 2 139 9 2635 1995 8.3 40 5 1 5 29% 15326 126126 25653 61%
c i  8.67 55 42 2 2 139 9 2641 1997 8.3 40 5 1 5 29% 15329 126126 25649 61%
c i  8.67 55 42 2 2 139 9 2642 1997 8.3 40 5 1 5 29% 15329 126126 25648 61%
c i  8.67 55 42 2 2 139 9 2678 2021 8.2 39 5 1 5 28% 15337 126126 25647 61%
c
c  seconds  switched  rate       size/glue tier1    binary           remaining
c         MB reductions conflicts      size  tier2      irredundant
c          level restarts   redundant    glue   trail           variables
c
c i  8.67 55 42 2 2 139 9 2687 2024 8.2 39 5 1 5 28% 15340 126126 25646 61%
c i  8.67 55 42 2 2 139 9 2688 2024 8.2 39 5 1 5 28% 15340 126126 25635 60%
c i  8.72 55 41 2 2 141 9 2736 2062 8.0 38 5 1 5 28% 15344 126126 25634 60%
c i  9.05 55 40 2 2 152 8 2887 2170 7.8 37 5 1 5 29% 15360 126126 25633 60%
c i  9.06 55 40 2 2 153 8 2916 2190 7.7 36 5 1 5 29% 15366 126126 25632 60%
c i  9.13 55 39 2 2 155 8 2967 2217 7.6 36 5 1 5 29% 15375 126126 25631 60%
c i  9.25 55 41 2 2 164 8 3024 2264 7.5 35 5 1 5 29% 15380 126126 25627 60%
c i  9.26 55 40 2 2 164 8 3040 2269 7.5 35 5 1 5 29% 15385 126126 25626 60%
c }  9.32 55 39 3 2 164 8 3112 2328 7.4 34 5 1 5 30% 15392 126125 25626 60%
c [  9.32 55 273 3 2 164 2 3112 2328 3.8 44 12 7 15 18% 15392 126125 25626 60%
c -  9.84 55 223 3 3 164 3 3416 2217 3.6 39 11 4 14 28% 15079 126125 25626 60%
c i 10.28 55 162 3 3 164 2 4044 2752 3.4 31 9 4 14 34% 15088 126125 25613 60%
c I 10.63 55 153 3 3 165 2 4263 2954 3.6 33 9 4 14 35% 15091 126125 25613 60%
c ] 11.11 55 145 4 3 165 3 4522 3194 3.4 33 10 4 14 36% 15094 126125 25613 60%
c { 11.11 55 39 4 3 165 8 4522 3194 7.4 34 5 1 5 30% 15094 126125 25613 60%
c i 11.15 55 41 4 3 175 8 4568 3230 7.2 34 5 1 5 30% 15098 126124 25611 60%
c i 11.21 55 41 4 3 180 9 4579 3236 7.2 34 5 1 5 30% 15101 126123 25610 60%
c i 11.21 55 41 4 3 183 9 4586 3238 7.2 34 5 1 5 30% 15104 126122 25609 60%
c i 11.41 55 41 4 3 258 9 4869 3474 6.4 31 5 1 5 28% 15125 126120 25608 60%
c - 11.90 55 42 4 4 342 10 5148 2448 6.2 32 5 1 5 27% 15081 126120 25608 60%
c
c  seconds  switched   rate       size/glue tier1    binary           remaining
c         MB reductions conflicts       size  tier2      irredundant
c          level restarts    redundant    glue   trail           variables
c
c i 11.90 55 42 4 4 342 10 5154 2448 6.2 32 5 1 5 27% 15083 126120 25600 60%
c i 11.91 55 42 4 4 342 10 5167 2452 6.1 32 5 1 5 27% 15087 126120 25586 60%
c i 11.98 55 42 4 4 342 10 5183 2462 6.2 32 5 1 5 27% 15090 126120 25579 60%
c i 12.06 55 42 4 4 347 10 5290 2551 6.1 31 5 1 5 27% 15095 126119 25578 60%
c i 12.24 55 42 4 4 385 9 5890 3042 5.5 27 5 1 5 24% 15146 126116 25577 60%
c i 12.25 55 42 4 4 392 9 5969 3110 5.4 27 5 1 5 24% 15149 126115 25576 60%
c i 12.26 55 41 4 4 392 9 6007 3137 5.4 27 5 1 5 24% 15154 126114 25539 60%
c i 12.26 55 41 4 4 392 9 6008 3137 5.4 27 5 1 5 24% 15154 126114 25536 60%
c i 12.26 55 41 4 4 392 9 6031 3155 5.4 26 5 1 5 24% 15155 126113 25534 60%
c i 12.36 55 41 4 4 412 9 6097 3216 5.3 26 5 1 5 24% 15156 126113 25533 60%
c i 12.37 55 41 4 4 418 9 6111 3221 5.3 26 5 1 5 24% 15157 126113 25532 60%
c i 12.39 55 41 4 4 422 9 6147 3251 5.2 26 5 1 5 24% 15160 126113 25531 60%
c i 12.46 55 39 4 4 423 9 6368 3460 5.1 25 5 1 5 25% 15161 126113 25530 60%
c } 12.67 55 42 5 4 494 9 6874 3914 4.7 24 5 1 5 24% 15187 126110 25530 60%
c [ 12.67 55 145 5 4 494 3 6874 3914 3.4 33 10 4 14 36% 15187 126110 25530 60%
c - 12.72 55 138 5 5 494 2 7148 3368 3.4 31 9 3 11 34% 14992 126110 25530 60%
c i 12.77 55 134 5 5 494 2 7353 3550 3.4 30 9 3 11 32% 15001 126110 25529 60%
c d 12.86 55 124 5 5 494 2 7734 3905 3.2 29 9 3 11 31% 15756 124235 25515 60%
c d 12.90 55 124 5 5 494 2 7734 3903 3.2 29 9 3 11 31% 15041 123248 25164 59%
c b 12.92 55 124 5 5 494 2 7734 3903 3.2 29 9 3 11 31% 15041 123248 25134 59%
c
c  seconds   switched  rate       size/glue tier1     binary           remaining
c         MB  reductions conflicts      size  tier2       irredundant
c           level restarts   redundant    glue    trail           variables
c
c u 13.00 55 124 5 5 494 2 7734 3658 3.2 29 9 3 11 31% 15022 123248 25134 59%
c v 13.10 55 124 5 5 494 2 7734 3618 3.2 29 9 3 11 31% 15022 123248 25134 59%
c w 13.15 55 124 5 5 494 2 7734 3612 3.2 29 9 3 11 31% 15022 123248 25134 59%
c x 13.20 55 124 5 5 494 2 7734 3610 3.2 29 9 3 11 31% 15111 122783 25134 59%
c = 13.46 55 124 5 5 494 2 7734 3610 3.2 29 9 3 11 31% 15241 122577 25059 59%
c d 13.48 55 124 5 5 494 2 7734 3610 3.2 29 9 3 11 31% 15025 122558 25036 59%
c t 13.53 55 124 5 5 494 2 7734 3610 3.2 29 9 3 11 31% 14790 122558 25032 59%
c b 13.54 55 124 5 5 494 2 7734 3610 3.2 29 9 3 11 31% 14790 122558 25031 59%
c f 13.61 55 124 5 5 494 2 7734 3610 3.2 29 9 3 11 31% 15106 121918 25195 59%
c c 13.99 55 124 5 5 494 2 7734 3606 3.2 29 9 3 11 31% 15045 121889 25187 59%
c d 14.02 55 124 5 5 494 2 7734 3602 3.2 29 9 3 11 31% 15064 121852 25185 59%
c d 14.04 55 124 5 5 494 2 7734 3602 3.2 29 9 3 11 31% 15007 121491 25149 59%
c b 14.06 55 124 5 5 494 2 7734 3602 3.2 29 9 3 11 31% 15007 121491 25146 59%
c u 14.11 55 124 5 5 494 2 7734 3525 3.2 29 9 3 11 31% 15002 121491 25146 59%
c v 14.23 55 124 5 5 494 2 7734 3376 3.2 29 9 3 11 31% 15007 121491 25146 59%
c w 14.27 55 124 5 5 494 2 7734 3361 3.2 29 9 3 11 31% 15007 121491 25146 59%
c x 14.34 55 124 5 5 494 2 7734 3359 3.2 29 9 3 11 31% 15031 121197 25145 59%
c = 14.59 55 124 5 5 494 2 7734 3359 3.2 29 9 3 11 31% 15098 121103 25102 59%
c d 14.61 55 124 5 5 494 2 7734 3353 3.2 29 9 3 11 31% 15013 121096 25100 59%
c d 14.62 55 124 5 5 494 2 7734 3353 3.2 29 9 3 11 31% 15010 121096 25099 59%
c
c  seconds   switched  rate       size/glue tier1     binary           remaining
c         MB  reductions conflicts      size  tier2       irredundant
c           level restarts   redundant    glue    trail           variables
c
c t 14.65 55 124 5 5 494 2 7734 3353 3.2 29 9 3 11 31% 14839 121096 25099 59%
c f 14.72 55 124 5 5 494 2 7734 3353 3.2 29 9 3 11 31% 15289 120196 25324 60%
c i 14.73 55 124 5 5 494 2 7734 3353 3.2 29 9 3 11 31% 15289 120196 25324 60%
c B 14.78 55 123 5 5 495 3 8034 3632 3.1 27 9 3 11 29% 15297 120195 25324 60%
c i 15.13 55 103 5 5 496 3 9021 4486 3.2 26 8 2 10 27% 15337 120190 25322 60%
c - 15.75 55 98 5 6 496 3 9384 4034 3.2 26 8 2 10 28% 15263 120188 25322 60%
c ] 16.13 55 82 6 6 496 3 10772 5335 3.1 25 8 2 10 29% 15283 120187 25322 60%
c { 16.13 55 42 6 6 496 9 10772 5335 4.7 24 5 1 5 24% 15283 120187 25322 60%
c o 16.16 55 42 6 6 498 9 10793 5356 4.7 24 5 1 5 24% 15283 120187 25322 60%
c i 16.33 55 41 6 6 528 8 11086 5620 4.6 23 5 1 5 24% 15291 120185 25313 60%
c i 16.42 55 40 6 6 534 8 11274 5789 4.7 23 5 1 5 24% 15301 120184 25046 59%
c i 16.50 55 40 6 6 538 8 11581 6045 4.5 23 5 1 5 24% 15324 120184 24996 59%
c i 16.50 55 40 6 6 538 8 11601 6050 4.5 23 5 1 5 24% 15325 120184 24995 59%
c - 16.55 55 40 6 7 547 8 11833 5048 4.4 22 5 1 5 23% 14919 120182 24995 59%
c i 16.63 55 39 6 7 548 8 12212 5367 4.3 21 5 1 5 22% 14948 120181 24994 59%
c s 16.79 55 38 6 7 550 7 12558 5638 4.2 21 5 1 5 22% 16315 112575 24994 59%
c e 17.71 56 38 6 7 550 7 12558 5638 4.2 21 5 1 5 22% 9853 103028 18087 43%
c 2 17.72 56 38 6 7 550 7 12558 5638 4.2 21 5 1 5 22% 9834 103028 18087 43%
c s 17.78 56 38 6 7 550 7 12558 5638 4.2 21 5 1 5 22% 9910 99959 18087 43%
c e 17.98 56 38 6 7 550 7 12558 5638 4.2 21 5 1 5 22% 9785 99939 17974 42%
c
c  seconds  switched  rate        size/glue tier1    binary         remaining
c         MB reductions conflicts       size  tier2     irredundant
c          level restarts    redundant    glue   trail         variables
c
c ^ 17.98 56 38 6 7 550 7 12558 5638 4.2 21 5 1 5 22% 9785 99939 17974 42%
c i 18.06 56 38 6 7 551 7 12841 3703 4.2 20 5 1 5 22% 9788 99939 17973 42%
c i 18.10 56 38 6 7 554 7 12969 3812 4.2 20 5 1 5 22% 9796 99937 17972 42%
c i 18.28 56 37 6 7 579 7 13443 4219 4.0 19 5 1 5 22% 9812 99936 17969 42%
c i 18.41 56 36 6 7 586 7 13783 4507 4.0 19 5 1 5 22% 9826 99934 17967 42%
c i 18.49 56 36 6 7 599 7 13994 4693 4.0 19 5 1 5 21% 9830 99934 17950 42%
c i 18.53 56 35 6 7 603 7 14151 4839 3.9 19 5 1 5 21% 9834 99934 17947 42%
c i 18.53 56 35 6 7 603 7 14167 4849 3.9 19 5 1 5 21% 9838 99934 17946 42%
c i 18.60 56 35 6 7 608 7 14313 4979 3.9 19 5 1 5 22% 9846 99934 17945 42%
c - 18.68 56 35 6 8 608 7 14484 4294 3.9 19 5 1 4 21% 9962 98661 17945 42%
c i 18.68 56 35 6 8 609 7 14491 4300 3.9 19 5 1 4 21% 9962 98661 17938 42%
c i 18.69 56 35 6 8 616 7 14522 4325 3.9 19 5 1 4 21% 9963 98661 17937 42%
c i 18.71 56 35 6 8 622 7 14560 4358 3.9 19 5 1 4 21% 9964 98661 17936 42%
c } 18.78 56 34 7 8 633 6 14841 4614 3.9 19 5 1 4 21% 9969 98661 17936 42%
c [ 18.78 56 82 7 8 633 3 14841 4614 3.1 25 8 2 10 29% 9969 98661 17936 42%
c W 18.82 56 82 7 8 633 3 14841 4614 3.1 25 8 2 10 29% 9919 98406 17936 42%
c i 18.83 56 82 7 8 633 3 14851 4623 3.1 25 8 2 10 29% 9919 98406 17903 42%
c i 18.98 56 79 7 8 633 3 15424 5136 3.0 24 8 2 10 28% 9933 98405 17887 42%
c d 19.16 56 75 7 8 633 3 15836 5409 3.0 23 8 2 10 27% 10060 97259 17772 42%
c d 19.18 56 75 7 8 633 3 15836 5406 3.0 23 8 2 10 27% 9752 97171 17619 42%
c
c  seconds  switched  rate        size/glue tier1     binary         remaining
c         MB reductions conflicts       size  tier2      irredundant
c          level restarts    redundant    glue    trail         variables
c
c b 19.20 56 75 7 8 633 3 15836 5406 3.0 23 8 2 10 27% 9752 97171 17546 41%
c u 19.26 56 75 7 8 633 3 15836 5091 3.0 23 8 2 10 27% 9796 97171 17225 41%
c v 19.34 56 75 7 8 633 3 15836 4711 3.0 23 8 2 10 27% 9824 97171 17225 41%
c w 19.39 56 75 7 8 633 3 15836 4673 3.0 23 8 2 10 27% 9823 97171 17225 41%
c x 19.45 56 75 7 8 633 3 15836 4671 3.0 23 8 2 10 27% 11097 91412 17189 41%
c = 19.70 56 75 7 8 633 3 15836 4671 3.0 23 8 2 10 27% 11937 90276 16647 39%
c d 19.77 56 75 7 8 633 3 15836 4450 3.0 23 8 2 10 27% 10569 87784 16231 38%
c d 19.80 56 75 7 8 633 3 15836 4441 3.0 23 8 2 10 27% 10029 87460 15965 38%
c t 19.83 56 75 7 8 633 3 15836 4441 3.0 23 8 2 10 27% 9770 87460 15953 38%
c b 19.84 56 75 7 8 633 3 15836 4441 3.0 23 8 2 10 27% 9770 87460 15951 38%
c f 19.90 56 75 7 8 633 3 15836 4441 3.0 23 8 2 10 27% 9696 87005 15993 38%
c b 19.94 56 75 7 8 633 3 15836 4408 3.0 23 8 2 10 27% 9744 86871 15991 38%
c u 19.99 56 75 7 8 633 3 15836 4122 3.0 23 8 2 10 27% 9784 86871 15939 38%
c v 20.06 56 75 7 8 633 3 15836 3786 3.0 23 8 2 10 27% 9796 86871 15939 38%
c w 20.10 56 75 7 8 633 3 15836 3767 3.0 23 8 2 10 27% 9795 86871 15939 38%
c x 20.15 56 75 7 8 633 3 15836 3767 3.0 23 8 2 10 27% 10087 85649 15939 38%
c = 20.38 56 75 7 8 633 3 15836 3767 3.0 23 8 2 10 27% 10521 85305 15703 37%
c d 20.40 56 75 7 8 633 3 15836 3733 3.0 23 8 2 10 27% 9760 85284 15689 37%
c t 20.43 56 75 7 8 633 3 15836 3733 3.0 23 8 2 10 27% 9581 85284 15684 37%
c b 20.44 56 75 7 8 633 3 15836 3733 3.0 23 8 2 10 27% 9581 85284 15679 37%
c
c  seconds  switched  rate        size/glue tier1     binary         remaining
c         MB reductions conflicts       size  tier2      irredundant
c          level restarts    redundant    glue    trail         variables
c
c f 20.49 56 75 7 8 633 3 15836 3733 3.0 23 8 2 10 27% 9772 84279 15788 37%
c i 20.50 56 75 7 8 633 3 15836 3733 3.0 23 8 2 10 27% 9772 84279 15788 37%
c i 20.73 56 68 7 8 635 3 17047 4817 2.9 22 8 2 8 25% 9775 84279 15483 37%
c i 20.75 56 68 7 8 635 3 17134 4879 2.9 22 8 2 8 25% 9782 84279 15444 36%
c i 20.75 56 67 7 8 635 3 17148 4884 2.9 22 8 2 8 25% 9787 84279 15380 36%
c ] 20.76 56 67 7 8 635 3 17165 4890 2.9 22 8 2 8 25% 9792 84279 15157 36%
c 0 20.76 56 34 7 8 635 6 17165 4890 3.9 19 5 1 4 21% 9792 84279 15157 36%
c
c ---- [ result ] ------------------------------------------------------------
c
s UNSATISFIABLE
c
c ---- [ profiling ] ---------------------------------------------------------
c
c          10.36   49.91 %  search
c           7.40   35.66 %  probe
c           6.54   31.50 %  simplify
c           5.83   28.07 %  focused
c           4.53   21.84 %  stable
c           3.67   17.67 %  preprocess
c           1.90    9.15 %  congruence
c           1.52    7.31 %  vivify
c           1.49    7.19 %  factor
c           1.45    6.98 %  fastel
c           1.44    6.93 %  sweep
c           1.29    6.20 %  eliminate
c           0.81    3.90 %  substitute
c           0.17    0.82 %  parse
c           0.17    0.81 %  reduce
c           0.14    0.68 %  subsume
c           0.11    0.51 %  backbone
c           0.10    0.48 %  transitive
c           0.07    0.32 %  walking
c           0.02    0.11 %  lucky
c =============================================
c          20.76  100.00 %  total
c
c ---- [ statistics ] --------------------------------------------------------
c
c ands_eliminated:                       1067                5 %  eliminated
c ands_extracted:                        2915                7 %  extracted
c arena_enlarged:                          19              100 %  resize
c arena_garbage:                       654016                1 %  resident set
c arena_resized:                           19              903    interval
c backbone_implied:                       707                1.15 per unit
c backbone_units:                         613                1 %  variables
c best_saved:                              41              419    interval
c chronological:                           54                0 %  conflicts
c clauses_deleted:                     266490               69 %  added
c clauses_factored:                     22352                6 %  added
c clauses_improved:                      5408               33 %  learned
c clauses_kept1:                           90                2 %  improved
c clauses_kept2:                         3493               65 %  improved
c clauses_kept3:                          267                5 %  improved
c clauses_promoted1:                     1435               27 %  improved
c clauses_promoted2:                      123                2 %  improved
c clauses_reduced:                       4423               27 %  learned
c clauses_reduced_tier2:                 2782               63 %  reduced
c clauses_reduced_tier3:                 1641               37 %  reduced
c clauses_unfactored:                   48193              216 %  factored
c compacted:                                2               25 %  reductions
c conflicts:                            17165              826.85 per second
c congruent:                             1522                4 %  variables
c congruent_ands:                         101                7 %  congruent
c congruent_arity:                     400454                2.49 per gate
c congruent_arity_ands:                 94578                3.26 per AND
c congruent_arity_xors:                189260                2.04 per XOR
c congruent_binaries:                     731                0 %  clauses added
c congruent_collisions:                261996                1.56 per lookup
c congruent_collisions_find:           130655               50 %  collisions
c congruent_collisions_index:          130497               50 %  collisions
c congruent_collisions_removed:           844                0 %  collisions
c congruent_equivalences:                1374               90 %  congruent
c congruent_indexed:                   164375                1.02 per gate
c congruent_lookups:                   168182                1.05 per gate
c congruent_lookups_find:              164668               98 %  lookups
c congruent_lookups_removed:             3514                2 %  lookups
c congruent_rewritten:                   3783                2 %  gates
c congruent_rewritten_ands:              2135               56 %  rewritten
c congruent_rewritten_ites:              1207               32 %  rewritten
c congruent_rewritten_xors:               441               12 %  rewritten
c congruent_simplified:                    10                0 %  gates
c congruent_simplified_ands:                1               10 %  simplified
c congruent_simplified_xors:                9               90 %  simplified
c congruent_subsumed:                     301                0 %  original
c congruent_trivial_ite:                    1                0 %  congruent
c congruent_unary:                         14                1 %  congruent
c congruent_unary_xors:                    14              100 %  unary
c congruent_units:                          1                0 %  variables
c congruent_xors:                          32                2 %  congruent
c decisions:                            76765                4.47 per conflict
c definitions_checked:                  37533               81 %  attempts
c definitions_eliminated:                3561               16 %  eliminated
c definitions_extracted:                32201               78 %  extracted
c defragmentations:                         4             4291    interval
c dense_propagations:                     182                0 %  propagations
c dense_ticks:                           3411                0 %  ticks
c duplicated:                              19                0 %  added
c eagerly_subsumed:                       955                6 %  learned
c eliminate_attempted:                  46405                1.09 per variable
c eliminated:                           22681               54 %  variables
c equivalences_eliminated:                 60                0 %  eliminated
c equivalences_extracted:                  60                0 %  extracted
c factored:                              2101                5 %  variables
c fast_eliminated:                      15661               69 %  eliminated
c fast_strengthened:                     1451               21 %  per strengthened
c fast_subsumed:                         3096               29 %  per subsumed
c fresh:                                 2101                5 %  variables
c flipped:                               6591             3295.50 per walk
c focused_decisions:                    53684               70 %  decisions
c focused_modes:                            3             5722    interval
c focused_propagations:               8581040               41 %  propagations
c focused_ticks:                     41872417               43 %  ticks
c forward_strengthened:                  5590               79 %  per strengthened
c forward_subsumed:                      7471               71 %  per subsumed
c forward_subsumptions:                     2             8582    interval
c gates_checked:                        46400              100 %  attempts
c gates_eliminated:                      6421               28 %  eliminated
c gates_extracted:                      41068               88 %  attempts
c if_then_else_eliminated:               1733                8 %  eliminated
c if_then_else_extracted:                5892               14 %  extracted
c initial_decisions:                      161                0 %  decisions
c iterations:                              65                0 %  variables
c jumped_reasons:                     2825801               14 %  propagations
c kitten_conflicts:                    228759                2.17 per solved
c kitten_decisions:                   5614922               53.24 per solved
c kitten_flip:                        1122497 
c kitten_flipped:                      313310               28 %  flip
c kitten_sat:                           38191               36 %  solved
c kitten_unknown:                           6                0 %  solved
c kitten_unsat:                         67265               64 %  solved
c literals_bumped:                    3511857              211.69 per clause
c literals_deduced:                    590022               35.56 per clause
c literals_factored:                    48201                2.16 per factored
c literals_learned:                    336234               20.27 per clause
c literals_minshrunken:                126671               50 %  shrunken
c literals_shrunken:                   253804               43 %  deduced
c moved:                                    3               38 %  reductions
c on_the_fly_strengthened:                284                2 %  of conflicts
c on_the_fly_subsumed:                      8                0 %  of conflicts
c probing_propagations:               5171082               25 %  propagations
c propagations:                      20786021          1001274    per second
c queue_decisions:                      44591               58 %  decision
c random_decisions:                      9722               13 %  decision
c reductions:                               8             2146    interval
c reordered:                                1            17165    interval
c reordered_focused:                        1              100 %  reordered
c rephased:                                 5             3433    interval
c rephased_best:                            2               40 %  rephased
c rephased_inverted:                        1               20 %  rephased
c rephased_walking:                         2               40 %  rephased
c restarts:                               635               27    interval
c restarts_levels:                       1945                3.06 per restart
c restarts_reused_levels:                1945              100 %  levels
c restarts_reused_trails:                 251               40 %  restarts
c saved_decisions:                      32330               42 %  decisions
c score_decisions:                      23526               31 %  decision
c stable_decisions:                     23081               30 %  decisions
c stable_propagations:                6989852               34 %  propagations
c strengthened:                          7041                0 %  checks
c substituted:                           4013                9 %  variables
c substitute_units:                         1                0 %  variables
c subsumed:                             10567                1 %  checks
c sweep_clauses:                       779358              308.66 per sweep_variables
c sweep_depth:                           5047                2.00 per sweep_variables
c sweep_environment:                   402878              159.56 per sweep_variables
c sweep_fixed_backbone:                    22                0.01 per sweep_variables
c sweep_flip_backbone:                 686838              272.02 per sweep_variables
c sweep_flipped_backbone:              198737               29 %  sweep_flip_backbone
c sweep_flip_equivalences:              26497               10.49 per sweep_variables
c sweep_flipped_equivalences:              35                0 %  sweep_flip_equivalences
c sweep_sat:                            32859               92 %  sweep_solved
c sweep_sat_backbone:                   17180              100 %  sweep_solved_backbone
c sweep_sat_equivalences:               13154               82 %  sweep_solved_equivalences
c sweep_solved_backbone:                17257               48 %  sweep_solved
c sweep_solved_equivalences:            15946               45 %  sweep_solved
c sweep_unknown_backbone:                   4                0 %  sweep_solved_backbone
c sweep_unknown_equivalences:               2                0 %  sweep_solved_equivalences
c sweep_unsat:                           2863                8 %  sweep_solved
c sweep_unsat_backbone:                    73                0 %  sweep_solve_backbone
c sweep_unsat_equivalences:              2790               17 %  sweep_solve_equivalences
c sweep_variables:                       2525                6 %  variables
c switched:                                 7             2452    interval
c target_decisions:                     67370               88 %  decisions
c target_saved:                            70              245    interval
c transitive_reduced:                     921                0 %  added
c transitive_reductions:                    6             2861    interval
c transitive_units:                        16                0 %  variables
c vectors_defrags_needed:                   3               75 %  defrags
c vivified:                              4295               36 %  checks
c vivified_asym:                          478               11 %  vivified
c vivified_implied:                      1219               28 %  vivified
c vivified_instantiated:                   74                2 %  vivified
c vivified_instirr:                        21               28 %  instantiated
c vivified_instred:                        53               72 %  instantiated
c vivified_irredundant:                  1301               30 %  vivified
c vivified_promoted:                        7                0 %  vivified
c vivified_shrunken:                     1847               43 %  vivified
c vivified_shrunkirr:                     473               26 %  shrunken
c vivified_shrunkred:                    1374               74 %  shrunken
c vivified_subirr:                        329               49 %  subsumed
c vivified_subred:                        348               51 %  subsumed
c vivified_subsumed:                      677               16 %  vivified
c vivified_tier1:                        1504               35 %  vivified
c vivified_tier2:                        1247               29 %  vivified
c vivified_tier3:                         243                6 %  vivified
c vivify_units:                            30                0 %  variables
c walk_decisions:                           2              100 %  walks
c walk_improved:                            2              100 %  walks
c walks:                                    2             8582    interval
c warming_conflicts:                      472              236.00 per walk
c weakened:                            148060               39 %  added
c
c ---- [ checker ] -----------------------------------------------------------
c
c checker_added:                      1631836              100 %  
c checker_checked:                    1452160               89 %  added
c checker_removed:                    1513389               93 %  added
c
c ---- [ glue usage ] --------------------------------------------------------
c
c focused glue 1 used 13596 clauses 51.09% accumulated 51.09% tier1
c focused glue 2 used  6480 clauses 24.35% accumulated 75.44%
c focused glue 3 used  2514 clauses  9.45% accumulated 84.89%
c focused glue 4 used  1496 clauses  5.62% accumulated 90.51% tier2
c
c stable glue 2   used 6430 clauses 20.35% accumulated 57.61% tier1
c stable glue 3   used 3951 clauses 12.51% accumulated 70.12%
c stable glue 4-6 used 4858 clauses 15.38% accumulated 85.50%
c stable glue 7   used  909 clauses  2.88% accumulated 88.37%
c stable glue 8   used  644 clauses  2.04% accumulated 90.41% tier2
c
c ---- [ resources ] ---------------------------------------------------------
c
c maximum-resident-set-size:         58523648 bytes         56 MB
c max-allocated:                     49090299 bytes         84 %
c process-time:                            21s              20.76 seconds
c
c ---- [ shutting down ] -----------------------------------------------------
c
c exit 20
